benchmarks/bfuzz0/244121245429427196971694317383027317836.smt2
(set-logic QF_FP)
(declare-const x0 (_ FloatingPoint 11 53))
(declare-const x1 (_ FloatingPoint 11 53))
(declare-const x2 (_ FloatingPoint 11 53))
(declare-const x3 (_ FloatingPoint 11 53))
(declare-const x4 (_ FloatingPoint 11 53))
(declare-const x5 (_ FloatingPoint 11 53))
(assert (fp.geq (fp.neg (fp.sub RNE x1 x2)) (fp.neg (fp.add RNE x1 x2))))
(assert (fp.geq (fp.div RNE (fp.sub RNE x1 x4) (fp.add RNE x4 x3)) (fp.div RNE (fp.mul RNE x0 x3) (fp.sub RNE x1 x5))))
(assert (fp.lt (fp.add RNE (fp.sub RNE x4 x0) (fp.div RNE x2 x1)) (fp.add RNE (fp.add RNE x0 x3) (fp.neg x1))))
(check-sat)
