db/data/244121245429427196971694317383027317836.z3.out
sat
-------------------
177.652108489
